c Reduced graph for GEOM90b_1 generated by Cyril Grelier
p edge 88 847
e 1 2
e 1 3
e 1 4
e 1 5
e 1 6
e 1 7
e 1 8
e 1 9
e 1 10
e 1 11
e 1 12
e 1 13
e 1 14
e 1 17
e 1 18
e 1 20
e 1 21
e 1 22
e 1 23
e 1 24
e 1 25
e 1 26
e 1 27
e 1 29
e 1 30
e 1 33
e 1 34
e 1 36
e 1 37
e 1 39
e 1 42
e 1 44
e 1 51
e 1 67
e 2 3
e 2 4
e 2 5
e 2 6
e 2 7
e 2 8
e 2 9
e 2 10
e 2 12
e 2 14
e 2 16
e 2 18
e 2 19
e 2 20
e 2 21
e 2 23
e 2 24
e 2 27
e 2 30
e 2 31
e 2 33
e 2 34
e 2 37
e 2 40
e 2 42
e 2 45
e 2 48
e 2 51
e 2 53
e 2 56
e 2 60
e 3 4
e 3 5
e 3 6
e 3 7
e 3 8
e 3 9
e 3 10
e 3 11
e 3 13
e 3 17
e 3 18
e 3 21
e 3 22
e 3 23
e 3 24
e 3 25
e 3 26
e 3 27
e 3 28
e 3 29
e 3 30
e 3 33
e 3 34
e 3 36
e 3 39
e 3 44
e 3 67
e 4 5
e 4 6
e 4 7
e 4 8
e 4 9
e 4 10
e 4 12
e 4 13
e 4 14
e 4 16
e 4 17
e 4 18
e 4 19
e 4 20
e 4 21
e 4 23
e 4 24
e 4 25
e 4 27
e 4 30
e 4 31
e 4 33
e 4 34
e 4 37
e 4 40
e 4 48
e 5 7
e 5 9
e 5 10
e 5 11
e 5 13
e 5 17
e 5 21
e 5 22
e 5 23
e 5 25
e 5 29
e 5 30
e 5 33
e 5 34
e 5 36
e 5 37
e 5 39
e 5 42
e 5 44
e 5 47
e 5 49
e 5 50
e 5 51
e 5 67
e 6 8
e 6 9
e 6 10
e 6 12
e 6 14
e 6 16
e 6 18
e 6 19
e 6 20
e 6 21
e 6 23
e 6 24
e 6 25
e 6 27
e 6 31
e 6 40
e 6 43
e 6 45
e 6 48
e 6 53
e 6 55
e 6 56
e 6 60
e 6 70
e 7 9
e 7 10
e 7 11
e 7 13
e 7 21
e 7 22
e 7 23
e 7 29
e 7 30
e 7 33
e 7 34
e 7 36
e 7 37
e 7 39
e 7 42
e 7 44
e 7 47
e 7 49
e 7 50
e 7 51
e 7 61
e 7 62
e 8 9
e 8 10
e 8 12
e 8 15
e 8 16
e 8 17
e 8 18
e 8 21
e 8 23
e 8 24
e 8 25
e 8 26
e 8 27
e 8 28
e 8 31
e 8 32
e 8 35
e 8 38
e 8 43
e 8 46
e 8 59
e 8 68
e 9 10
e 9 11
e 9 12
e 9 14
e 9 15
e 9 16
e 9 17
e 9 18
e 9 20
e 9 21
e 9 23
e 9 24
e 9 25
e 9 26
e 9 27
e 9 28
e 9 31
e 9 36
e 9 39
e 10 11
e 10 12
e 10 14
e 10 15
e 10 16
e 10 17
e 10 18
e 10 20
e 10 21
e 10 23
e 10 24
e 10 25
e 10 26
e 10 27
e 10 28
e 10 31
e 10 36
e 10 39
e 11 13
e 11 17
e 11 22
e 11 26
e 11 29
e 11 30
e 11 33
e 11 34
e 11 36
e 11 39
e 11 44
e 11 47
e 11 49
e 11 50
e 11 61
e 11 62
e 11 67
e 11 73
e 11 76
e 11 78
e 12 14
e 12 16
e 12 18
e 12 19
e 12 20
e 12 21
e 12 23
e 12 24
e 12 25
e 12 27
e 12 31
e 12 40
e 12 43
e 12 45
e 12 53
e 12 55
e 12 56
e 12 60
e 12 70
e 13 22
e 13 29
e 13 30
e 13 33
e 13 34
e 13 36
e 13 37
e 13 39
e 13 42
e 13 44
e 13 47
e 13 49
e 13 50
e 13 51
e 13 61
e 13 62
e 13 67
e 13 73
e 13 76
e 13 78
e 14 16
e 14 18
e 14 19
e 14 20
e 14 21
e 14 23
e 14 24
e 14 27
e 14 30
e 14 31
e 14 37
e 14 40
e 14 45
e 14 48
e 14 53
e 14 56
e 14 60
e 14 70
e 14 71
e 15 17
e 15 21
e 15 23
e 15 25
e 15 26
e 15 28
e 15 32
e 15 35
e 15 38
e 15 41
e 15 52
e 15 54
e 15 57
e 15 58
e 15 59
e 15 63
e 15 64
e 15 65
e 15 66
e 15 68
e 15 69
e 15 72
e 15 74
e 16 18
e 16 19
e 16 20
e 16 21
e 16 23
e 16 24
e 16 27
e 16 31
e 16 40
e 16 45
e 16 48
e 16 53
e 16 55
e 16 56
e 16 60
e 16 70
e 16 71
e 16 81
e 17 18
e 17 21
e 17 23
e 17 24
e 17 25
e 17 26
e 17 27
e 17 28
e 17 32
e 17 35
e 17 36
e 17 39
e 17 54
e 17 59
e 17 67
e 17 76
e 18 19
e 18 20
e 18 21
e 18 23
e 18 24
e 18 25
e 18 27
e 18 31
e 18 38
e 18 43
e 18 46
e 18 55
e 18 68
e 19 20
e 19 21
e 19 23
e 19 24
e 19 27
e 19 31
e 19 40
e 19 45
e 19 48
e 19 53
e 19 55
e 19 56
e 19 60
e 19 70
e 19 71
e 19 80
e 19 81
e 19 83
e 20 21
e 20 23
e 20 24
e 20 27
e 20 31
e 20 37
e 20 40
e 20 45
e 20 48
e 20 53
e 20 56
e 20 60
e 20 70
e 20 71
e 21 23
e 21 24
e 21 25
e 21 27
e 21 28
e 21 31
e 21 43
e 22 29
e 22 30
e 22 33
e 22 34
e 22 36
e 22 37
e 22 39
e 22 42
e 22 44
e 22 47
e 22 49
e 22 50
e 22 51
e 22 61
e 22 62
e 22 67
e 22 73
e 22 76
e 22 78
e 23 24
e 23 25
e 23 27
e 23 28
e 23 31
e 23 43
e 24 25
e 24 27
e 24 31
e 24 38
e 24 43
e 24 46
e 24 55
e 25 26
e 25 27
e 25 28
e 25 31
e 25 32
e 25 35
e 25 38
e 25 43
e 25 59
e 26 28
e 26 32
e 26 35
e 26 36
e 26 39
e 26 41
e 26 44
e 26 54
e 26 59
e 26 65
e 26 67
e 26 69
e 26 74
e 26 76
e 26 79
e 27 31
e 27 43
e 27 46
e 27 55
e 27 60
e 28 32
e 28 35
e 28 36
e 28 39
e 28 41
e 28 54
e 28 59
e 28 64
e 28 65
e 28 67
e 28 69
e 28 74
e 28 79
e 29 30
e 29 33
e 29 34
e 29 36
e 29 37
e 29 39
e 29 42
e 29 44
e 29 47
e 29 49
e 29 50
e 29 51
e 29 61
e 29 62
e 29 73
e 29 78
e 30 33
e 30 34
e 30 37
e 30 40
e 30 42
e 30 48
e 30 49
e 30 50
e 30 51
e 30 56
e 30 61
e 30 62
e 31 38
e 31 43
e 31 46
e 31 55
e 31 60
e 31 75
e 32 35
e 32 38
e 32 41
e 32 52
e 32 54
e 32 57
e 32 58
e 32 59
e 32 63
e 32 64
e 32 65
e 32 66
e 32 69
e 32 72
e 32 74
e 32 79
e 33 34
e 33 37
e 33 40
e 33 42
e 33 48
e 33 49
e 33 50
e 33 51
e 33 61
e 33 62
e 33 73
e 34 37
e 34 40
e 34 42
e 34 47
e 34 49
e 34 50
e 34 51
e 34 61
e 34 62
e 34 73
e 35 38
e 35 41
e 35 52
e 35 54
e 35 57
e 35 58
e 35 59
e 35 63
e 35 64
e 35 65
e 35 66
e 35 68
e 35 69
e 35 72
e 35 74
e 36 39
e 36 44
e 36 47
e 36 54
e 36 59
e 36 67
e 36 76
e 36 79
e 37 40
e 37 42
e 37 48
e 37 49
e 37 51
e 37 56
e 37 62
e 38 41
e 38 43
e 38 46
e 38 52
e 38 57
e 38 58
e 38 63
e 38 66
e 38 68
e 38 75
e 38 77
e 38 82
e 39 44
e 39 47
e 39 54
e 39 67
e 39 76
e 39 79
e 40 42
e 40 45
e 40 48
e 40 51
e 40 53
e 40 56
e 40 71
e 40 80
e 41 52
e 41 54
e 41 57
e 41 58
e 41 59
e 41 63
e 41 64
e 41 65
e 41 66
e 41 69
e 41 72
e 41 74
e 41 82
e 42 48
e 42 49
e 42 50
e 42 51
e 42 56
e 42 61
e 42 62
e 43 46
e 43 52
e 43 55
e 43 57
e 43 58
e 43 68
e 43 75
e 43 84
e 44 47
e 44 50
e 44 61
e 44 67
e 44 73
e 44 76
e 44 78
e 44 79
e 45 48
e 45 53
e 45 55
e 45 56
e 45 60
e 45 70
e 45 71
e 45 80
e 45 81
e 45 83
e 46 52
e 46 55
e 46 57
e 46 58
e 46 68
e 46 75
e 46 77
e 46 84
e 46 85
e 46 86
e 46 87
e 47 49
e 47 50
e 47 61
e 47 62
e 47 67
e 47 73
e 47 76
e 47 78
e 48 51
e 48 53
e 48 56
e 48 71
e 48 80
e 49 50
e 49 51
e 49 61
e 49 62
e 49 73
e 49 78
e 50 51
e 50 61
e 50 62
e 50 73
e 50 78
e 51 61
e 51 62
e 52 57
e 52 58
e 52 63
e 52 64
e 52 65
e 52 66
e 52 68
e 52 69
e 52 72
e 52 77
e 52 82
e 53 56
e 53 60
e 53 70
e 53 71
e 53 80
e 53 81
e 53 83
e 54 59
e 54 64
e 54 65
e 54 67
e 54 69
e 54 74
e 54 76
e 54 79
e 55 60
e 55 70
e 55 75
e 55 85
e 55 86
e 55 88
e 56 71
e 56 80
e 56 81
e 57 58
e 57 63
e 57 64
e 57 66
e 57 68
e 57 72
e 57 75
e 57 77
e 57 82
e 58 63
e 58 64
e 58 65
e 58 66
e 58 68
e 58 72
e 58 77
e 58 82
e 59 63
e 59 64
e 59 65
e 59 69
e 59 74
e 59 79
e 60 70
e 60 71
e 60 81
e 60 83
e 60 88
e 61 62
e 61 73
e 61 78
e 62 73
e 62 78
e 63 64
e 63 65
e 63 66
e 63 68
e 63 69
e 63 72
e 63 77
e 63 82
e 64 65
e 64 66
e 64 69
e 64 72
e 64 74
e 65 66
e 65 69
e 65 72
e 65 74
e 66 68
e 66 69
e 66 72
e 66 77
e 66 82
e 67 76
e 67 79
e 68 75
e 68 77
e 68 82
e 68 84
e 69 72
e 69 74
e 70 71
e 70 80
e 70 81
e 70 83
e 70 88
e 71 80
e 71 81
e 71 83
e 72 77
e 72 82
e 73 78
e 74 79
e 75 77
e 75 84
e 75 85
e 75 86
e 75 87
e 76 79
e 77 82
e 80 81
e 80 83
e 81 83
e 84 85
e 84 86
e 84 87
e 85 86
e 85 87
e 85 88
e 86 87
e 86 88
e 87 88
